p cnf 95 282
c t mc
-3 1 0
-3 2 0
-1 -2 3 0
2 4 -5 0
-2 -4 -5 0
2 -4 5 0
-2 4 5 0
-8 6 0
-8 7 0
-6 -7 8 0
9 -5 0
9 -8 0
5 8 -9 0
-11 9 0
-11 -10 0
-9 10 11 0
13 -11 0
13 -12 0
11 12 -13 0
16 14 0
16 -15 0
-14 15 -16 0
17 6 0
17 16 0
-6 -16 -17 0
17 -18 -19 0
-17 18 -19 0
17 18 19 0
-17 -18 19 0
20 -13 0
20 19 0
13 -19 -20 0
21 16 -22 0
-21 -16 -22 0
21 -16 22 0
-21 16 22 0
8 -22 -23 0
-8 22 -23 0
8 22 23 0
-8 -22 23 0
-24 -5 0
-24 21 0
5 -21 24 0
23 24 -25 0
-23 -24 -25 0
23 -24 25 0
-23 24 25 0
-8 -26 -27 0
8 26 -27 0
-8 26 27 0
8 -26 27 0
-28 1 0
-28 27 0
-1 -27 28 0
-30 28 0
-30 -29 0
-28 29 30 0
-31 -25 0
-31 -30 0
25 30 31 0
-20 -31 -32 0
20 31 -32 0
-20 31 32 0
20 -31 32 0
-34 33 0
-34 4 0
-33 -4 34 0
-16 8 -35 0
16 -8 -35 0
-16 -8 35 0
16 8 35 0
-36 34 0
-36 -35 0
-34 35 36 0
32 36 -37 0
-32 -36 -37 0
32 -36 37 0
-32 36 37 0
-38 3 0
-38 37 0
-3 -37 38 0
-39 -15 0
-39 21 0
15 -21 39 0
40 1 0
40 39 0
-1 -39 -40 0
2 41 -42 0
-2 -41 -42 0
2 -41 42 0
-2 41 42 0
44 -43 0
44 22 0
43 -22 -44 0
-45 33 0
-45 -1 0
-33 1 45 0
-44 45 -46 0
44 -45 -46 0
-44 -45 46 0
44 45 46 0
-42 -46 -47 0
42 46 -47 0
-42 46 47 0
42 -46 47 0
-48 -6 0
-48 -29 0
6 29 48 0
-49 48 0
-49 14 0
-48 -14 49 0
49 15 -50 0
-49 -15 -50 0
49 -15 50 0
-49 15 50 0
-51 47 0
-51 50 0
-47 -50 51 0
52 -40 0
52 -51 0
40 51 -52 0
-54 -53 0
-54 -43 0
53 43 54 0
55 -43 0
55 -1 0
43 1 -55 0
-57 55 0
-57 56 0
-55 -56 57 0
59 58 0
59 7 0
-58 -7 -59 0
-60 -59 0
-60 11 0
59 -11 60 0
61 -29 0
61 5 0
29 -5 -61 0
-62 8 0
-62 61 0
-8 -61 62 0
-60 62 -63 0
60 -62 -63 0
-60 -62 63 0
60 62 63 0
57 -63 -64 0
-57 63 -64 0
57 63 64 0
-57 -63 64 0
1 65 -66 0
-1 -65 -66 0
1 -65 66 0
-1 65 66 0
-67 12 0
-67 -5 0
-12 5 67 0
66 67 -68 0
-66 -67 -68 0
66 -67 68 0
-66 67 68 0
-69 18 0
-69 -55 0
-18 55 69 0
70 65 -71 0
-70 -65 -71 0
70 -65 71 0
-70 65 71 0
65 -43 -72 0
-65 43 -72 0
65 43 72 0
-65 -43 72 0
73 39 0
73 -72 0
-39 72 -73 0
-74 71 0
-74 73 0
-71 -73 74 0
-75 -69 0
-75 74 0
69 -74 75 0
-76 -68 0
-76 -75 0
68 75 76 0
18 -43 -77 0
-18 43 -77 0
18 43 77 0
-18 -43 77 0
78 -22 0
78 77 0
22 -77 -78 0
-79 10 0
-79 -78 0
-10 78 79 0
80 -28 0
80 79 0
28 -79 -80 0
-81 -76 0
-81 80 0
76 -80 81 0
-82 28 0
-82 53 0
-28 -53 82 0
81 -82 -83 0
-81 82 -83 0
81 82 83 0
-81 -82 83 0
-64 83 -84 0
64 -83 -84 0
-64 -83 84 0
64 83 84 0
-54 84 -85 0
54 -84 -85 0
-54 -84 85 0
54 84 85 0
86 21 0
86 -12 0
-21 12 -86 0
-87 26 0
-87 72 0
-26 -72 87 0
88 -86 0
88 -87 0
86 87 -88 0
89 -58 0
89 78 0
58 -78 -89 0
-27 61 -90 0
27 -61 -90 0
-27 -61 90 0
27 61 90 0
91 89 0
91 -90 0
-89 90 -91 0
92 88 0
92 -91 0
-88 91 -92 0
-85 92 -93 0
85 -92 -93 0
-85 -92 93 0
85 92 93 0
-52 93 -94 0
52 -93 -94 0
-52 -93 94 0
52 93 94 0
38 -94 -95 0
-38 94 -95 0
38 94 95 0
-38 -94 95 0
-46 61 -55 0
24 -43 -8 -7 6 -42 -56 0
-5 -70 -46 15 -67 40 92 -28 0
24 -19 18 52 84 30 -67 -77 0
-80 75 -90 0
1 83 36 95 22 -74 -79 -21 0
43 23 73 94 0
-49 -90 -46 -88 -71 -58 0
-91 41 37 29 -49 -64 0
51 25 76 -38 -19 -92 43 6 -75 0
19 -56 54 -57 -1 -93 -22 -5 0
2 -38 -76 -67 -51 80 -39 32 -21 79 0
-2 18 -57 12 61 -41 95 0
72 -5 -30 -68 0
-41 -11 -65 73 -17 -80 0
62 90 43 19 -35 -41 33 38 0
63 -45 0
46 -8 71 92 23 -12 -81 11 -84 44 0
53 -12 25 -11 63 -23 95 56 -51 0
51 -65 3 -31 0
-87 -45 28 -52 -41 13 82 0
-80 -86 -87 -14 -44 -91 -4 59 85 0
23 14 -63 53 56 0
53 66 0
-33 17 61 -38 0
26 -15 85 20 -45 58 0
48 32 -7 46 74 -21 24 -93 0
-3 66 -56 0
56 -36 -47 -91 -44 -30 68 22 0
-58 69 85 0
47 45 89 -15 0
83 52 46 81 10 34 0
95 0
